Advanced_Revenue_Avacado_problem/solution.sol
# Solution for model Avocado_Price_Allocation
# Objective value = 3.5802420238969525e+01
price[Great_Lakes] 1.4894237792295937e+00
price[Midsouth] 1.3843605981637797e+00
price[Northeast] 1.8599999018771323e+00
price[Northern_New_England] 1.1922602204483350e+00
price[SouthCentral] 1.8599999791690971e+00
price[Southeast] 1.5719217573206732e+00
price[West] 1.8599999977894159e+00
price[Plains] 1.0276220081338503e+00
supplied_avacadoes_each_region[Great_Lakes] 3.2823475856577540e+00
supplied_avacadoes_each_region[Midsouth] 6.16857159349669
supplied_avacadoes_each_region[Northeast] 3.89870283351323
supplied_avacadoes_each_region[Northern_New_England] 9.1798394526269056e-01
supplied_avacadoes_each_region[SouthCentral] 4.1794949088382758e+00
supplied_avacadoes_each_region[Southeast] 3.7929138245718366e+00
supplied_avacadoes_each_region[West] 5.1761031102268884e+00
supplied_avacadoes_each_region[Plains] 2.5838821984326330e+00
predicted_avacadoes_sold_each_region[Great_Lakes] 3.2823475691056943e+00
predicted_avacadoes_sold_each_region[Midsouth] 3.2711895129814885e+00
predicted_avacadoes_sold_each_region[Northeast] 3.8987028252431908e+00
predicted_avacadoes_sold_each_region[Northern_New_England] 9.1798394271500106e-01
predicted_avacadoes_sold_each_region[SouthCentral] 4.17949489228983
predicted_avacadoes_sold_each_region[Southeast] 3.6845311580569624e+00
predicted_avacadoes_sold_each_region[West] 5.06748222596799
predicted_avacadoes_sold_each_region[Plains] 2.4850196338854529e+00
predicted_avacadoes_wasted_each_region[Great_Lakes] 1.6552059562895987e-08
predicted_avacadoes_wasted_each_region[Midsouth] 2.8973820805152015e+00
predicted_avacadoes_wasted_each_region[Northeast] 8.2700393880374827e-09
predicted_avacadoes_wasted_each_region[Northern_New_England] 2.5476894401855667e-09
predicted_avacadoes_wasted_each_region[SouthCentral] 1.6548445467925402e-08
predicted_avacadoes_wasted_each_region[Southeast] 1.0838266651487417e-01
predicted_avacadoes_wasted_each_region[West] 1.0862088425889850e-01
predicted_avacadoes_wasted_each_region[Plains] 9.8862564547180454e-02
demand[Great_Lakes] 3.2823475702153169e+00
demand[Midsouth] 3.27118951409495
demand[Northeast] 3.8987028261817693e+00
demand[Northern_New_England] 9.1798394668237737e-01
demand[SouthCentral] 4.1794948931782709e+00
demand[Southeast] 3.6845311590454681e+00
demand[West] 5.0674822268111752e+00
demand[Plains] 2.4850196353510681e+00
pipe.col_trans.std_scaler.year[Great_Lakes] 2022
pipe.col_trans.std_scaler.year[Midsouth] 2022
pipe.col_trans.std_scaler.year[Northeast] 2022
pipe.col_trans.std_scaler.year[Northern_New_England] 2022
pipe.col_trans.std_scaler.year[SouthCentral] 2022
pipe.col_trans.std_scaler.year[Southeast] 2022
pipe.col_trans.std_scaler.year[West] 2022
pipe.col_trans.std_scaler.year[Plains] 2022
pipe.col_trans.std_scaler.out[0,0] 1.6040839726877119e+00
pipe.col_trans.std_scaler.out[0,1] 1.7873468335408933e+00
pipe.col_trans.std_scaler.out[1,0] 1.1192424137498405e+00
pipe.col_trans.std_scaler.out[1,1] 1.7873468335408933e+00
pipe.col_trans.std_scaler.out[2,0] 3.3142045228834576e+00
pipe.col_trans.std_scaler.out[2,1] 1.7873468335408933e+00
pipe.col_trans.std_scaler.out[3,0] 2.3274492091486954e-01
pipe.col_trans.std_scaler.out[3,1] 1.7873468335408933e+00
pipe.col_trans.std_scaler.out[4,0] 3.3142048795674679e+00
pipe.col_trans.std_scaler.out[4,1] 1.7873468335408933e+00
pipe.col_trans.std_scaler.out[5,0] 1.9847924939901995e+00
pipe.col_trans.std_scaler.out[5,1] 1.7873468335408933e+00
pipe.col_trans.std_scaler.out[6,0] 3.3142049654958026e+00
pipe.col_trans.std_scaler.out[6,1] 1.7873468335408933e+00
pipe.col_trans.std_scaler.out[7,0] -5.2702121894049991e-01
pipe.col_trans.std_scaler.out[7,1] 1.7873468335408933e+00
pipe.lin_reg.feat0[0] 0
pipe.lin_reg.feat1[0] 0
pipe.lin_reg.feat2[0] 0
pipe.lin_reg.feat3[0] 0
pipe.lin_reg.feat4[0] 0
pipe.lin_reg.feat5[0] 0
pipe.lin_reg.feat6[0] 0
pipe.lin_reg.feat9[0] 0
pipe.lin_reg.feat0[1] 1
pipe.lin_reg.feat1[1] 0
pipe.lin_reg.feat2[1] 0
pipe.lin_reg.feat3[1] 0
pipe.lin_reg.feat4[1] 0
pipe.lin_reg.feat5[1] 0
pipe.lin_reg.feat6[1] 0
pipe.lin_reg.feat9[1] 0
pipe.lin_reg.feat0[2] 0
pipe.lin_reg.feat1[2] 1
pipe.lin_reg.feat2[2] 0
pipe.lin_reg.feat3[2] 0
pipe.lin_reg.feat4[2] 0
pipe.lin_reg.feat5[2] 0
pipe.lin_reg.feat6[2] 0
pipe.lin_reg.feat9[2] 0
pipe.lin_reg.feat0[3] 0
pipe.lin_reg.feat1[3] 0
pipe.lin_reg.feat2[3] 1
pipe.lin_reg.feat3[3] 0
pipe.lin_reg.feat4[3] 0
pipe.lin_reg.feat5[3] 0
pipe.lin_reg.feat6[3] 0
pipe.lin_reg.feat9[3] 0
pipe.lin_reg.feat0[4] 0
pipe.lin_reg.feat1[4] 0
pipe.lin_reg.feat2[4] 0
pipe.lin_reg.feat3[4] 0
pipe.lin_reg.feat4[4] 1
pipe.lin_reg.feat5[4] 0
pipe.lin_reg.feat6[4] 0
pipe.lin_reg.feat9[4] 0
pipe.lin_reg.feat0[5] 0
pipe.lin_reg.feat1[5] 0
pipe.lin_reg.feat2[5] 0
pipe.lin_reg.feat3[5] 0
pipe.lin_reg.feat4[5] 0
pipe.lin_reg.feat5[5] 1
pipe.lin_reg.feat6[5] 0
pipe.lin_reg.feat9[5] 0
pipe.lin_reg.feat0[6] 0
pipe.lin_reg.feat1[6] 0
pipe.lin_reg.feat2[6] 0
pipe.lin_reg.feat3[6] 0
pipe.lin_reg.feat4[6] 0
pipe.lin_reg.feat5[6] 0
pipe.lin_reg.feat6[6] 1
pipe.lin_reg.feat9[6] 0
pipe.lin_reg.feat0[7] 0
pipe.lin_reg.feat1[7] 0
pipe.lin_reg.feat2[7] 0
pipe.lin_reg.feat3[7] 1
pipe.lin_reg.feat4[7] 0
pipe.lin_reg.feat5[7] 0
pipe.lin_reg.feat6[7] 0
pipe.lin_reg.feat9[7] 0
